9 64
20 198
75 2
92 21
4 137
86 7
4 180
36 117
42 99
4 118
21 114
89 10
13 107
99 40
19 27
98 16
24 1
56 14
19 199
21 174
94 60
17 35
69 20
24 114
26 84
77 27
1 42
94 5
2 25
4 124
89 50
1 170
57 83
19 133
31 72
4 45
13 108
47 51
33 64
4 160
69 28
27 62
67 16
65 20
58 52
12 80
25 155
41 51
43 3
34 49
